(declare-fun b_ack!42 () (_ BitVec 32))
(declare-fun a_ack!44 () (_ BitVec 32))
(declare-fun c_ack!43 () (_ BitVec 64))
(declare-fun FPCHECK_FADD_ACCURACY ((_ FloatingPoint 11 53) (_ BitVec 64)) Bool)
(assert (not (bvslt b_ack!42 #x00000000)))
(assert (not (bvslt a_ack!44 b_ack!42)))
(assert (= #x00000000 b_ack!42))
(assert (not (bvslt a_ack!44 #x00000000)))
(assert (not (fp.lt ((_ to_fp 11 53) c_ack!43) ((_ to_fp 11 53) #xbff0000000000000))))
(assert (not (fp.gt ((_ to_fp 11 53) c_ack!43) ((_ to_fp 11 53) #x3ff0000000000000))))
(assert (= #x00000000 a_ack!44))
(assert (bvsle #x00000000 a_ack!44))
(assert (not (bvsle #x00000001 a_ack!44)))
(assert (FPCHECK_FADD_ACCURACY
  ((_ to_fp 11 53) roundNearestTiesToEven a_ack!44)
  #x3ff0000000000000))

(check-sat)
(exit)
